(set-logic QF_S)
(declare-fun var0 () String)
(assert (RegexIn var0 (RegexConcat (RegexUnion (RegexUnion (Str2Reg "00") (Str2Reg "111")) (RegexUnion (Str2Reg "2") (Str2Reg "3"))) (RegexConcat (RegexUnion (RegexPlus (Str2Reg "444")) (RegexPlus (Str2Reg "5"))) (RegexConcat (RegexPlus (RegexPlus (Str2Reg "6"))) (RegexConcat (RegexPlus (RegexPlus (Str2Reg "77"))) (RegexConcat (RegexPlus (RegexUnion (Str2Reg "888") (Str2Reg "99"))) (RegexConcat (RegexStar (RegexStar (Str2Reg "aa"))) (RegexConcat (RegexStar (RegexPlus (Str2Reg "bb"))) (RegexConcat (RegexStar (RegexPlus (Str2Reg "ccc"))) (RegexConcat (RegexStar (RegexPlus (Str2Reg "dd"))) (RegexConcat (RegexPlus (RegexUnion (Str2Reg "ee") (Str2Reg "fff"))) (RegexConcat (RegexStar (RegexPlus (Str2Reg "g"))) (RegexConcat (RegexUnion (RegexUnion (Str2Reg "hh") (Str2Reg "iii")) (RegexUnion (Str2Reg "jj") (Str2Reg "kk"))) (RegexConcat (RegexUnion (RegexUnion (Str2Reg "lll") (Str2Reg "mmm")) (RegexUnion (Str2Reg "n") (Str2Reg "ooo"))) (RegexConcat (RegexPlus (RegexPlus (Str2Reg "pp"))) (RegexConcat (RegexStar (RegexUnion (Str2Reg "q") (Str2Reg "rr"))) (RegexConcat (RegexPlus (RegexPlus (Str2Reg "s"))) (RegexConcat (RegexStar (RegexUnion (Str2Reg "t") (Str2Reg "uuu"))) (RegexConcat (RegexUnion (RegexStar (Str2Reg "vv")) (RegexStar (Str2Reg "www"))) (RegexConcat (RegexUnion (RegexStar (Str2Reg "xxx")) (RegexStar (Str2Reg "yyy"))) (RegexConcat (RegexUnion (RegexPlus (Str2Reg "z")) (RegexPlus (Str2Reg "AA"))) (RegexConcat (RegexUnion (RegexStar (Str2Reg "B")) (RegexStar (Str2Reg "C"))) (RegexConcat (RegexPlus (RegexUnion (Str2Reg "DD") (Str2Reg "EEE"))) (RegexConcat (RegexPlus (RegexPlus (Str2Reg "FFF"))) (RegexConcat (RegexPlus (RegexPlus (Str2Reg "G"))) (RegexConcat (RegexStar (RegexStar (Str2Reg "HH"))) (RegexConcat (RegexStar (RegexPlus (Str2Reg "I"))) (RegexConcat (RegexStar (RegexStar (Str2Reg "JJ"))) (RegexConcat (RegexStar (RegexUnion (Str2Reg "KK") (Str2Reg "L"))) (RegexConcat (RegexUnion (RegexStar (Str2Reg "MMM")) (RegexStar (Str2Reg "NN"))) (RegexConcat (RegexStar (RegexPlus (Str2Reg "O"))) (RegexConcat (RegexPlus (RegexPlus (Str2Reg "PP"))) (RegexConcat (RegexUnion (RegexPlus (Str2Reg "Q")) (RegexPlus (Str2Reg "RRR"))) (RegexConcat (RegexPlus (RegexUnion (Str2Reg "SSS") (Str2Reg "TT"))) (RegexConcat (RegexUnion (RegexStar (Str2Reg "U")) (RegexStar (Str2Reg "VVV"))) (RegexConcat (RegexUnion (RegexStar (Str2Reg "W")) (RegexStar (Str2Reg "XXX"))) (RegexConcat (RegexPlus (RegexStar (Str2Reg "Y"))) (RegexConcat (RegexStar (RegexStar (Str2Reg "Z"))) (RegexConcat (RegexUnion (RegexStar (Str2Reg "!")) (RegexStar (Str2Reg "\"\""))) (RegexUnion (RegexStar (Str2Reg "#")) (RegexStar (Str2Reg "$$")))))))))))))))))))))))))))))))))))))))))))
(check-sat)